8 = ndim
4 = nblocks
6 1 1 1 = blockstruct
0.0, 0.0, 0.0, 0.0, 0.0, 0.0, 0.0, 0.0 = objcoeffs
0 1 1 6 -0.013987717150240516
0 1 2 6 -0.00043355117037256405
0 1 3 3 -0.006219801329246766
0 1 3 4 0.013987717150240516
0 1 3 5 0.00043355117037256405
0 3 1 1 -0.003969488256558629
0 4 1 1 -0.084927681433747
1 1 1 1 1.0
2 1 1 2 1.0
3 1 1 3 1.0
4 1 2 2 1.0
5 1 2 3 1.0
6 1 1 5 1.0
6 1 2 4 -1.0
7 1 4 4 1.0
7 1 5 5 1.0
7 1 6 6 1.0
8 1 3 3 -1.0
8 2 1 1 1.0
